p cnf 328 2616
1 0
18 0
323 0
276 0
157 0
206 0
119 0
-1 -321 0
-2 -322 0
-3 -323 0
-4 -324 0
-5 -325 0
-6 -326 0
-7 -327 0
-8 -328 0
-1 -17 0
-2 -18 0
-3 -19 0
-4 -20 0
-5 -21 0
-6 -22 0
-7 -23 0
-8 -24 0
-1 -113 0
-2 -114 0
-3 -115 0
-4 -116 0
-5 -117 0
-6 -118 0
-7 -119 0
-8 -120 0
-1 -145 0
-2 -146 0
-3 -147 0
-4 -148 0
-5 -149 0
-6 -150 0
-7 -151 0
-8 -152 0
-1 -177 0
-2 -178 0
-3 -179 0
-4 -180 0
-5 -181 0
-6 -182 0
-7 -183 0
-8 -184 0
-1 -97 0
-2 -98 0
-3 -99 0
-4 -100 0
-5 -101 0
-6 -102 0
-7 -103 0
-8 -104 0
-1 -273 0
-2 -274 0
-3 -275 0
-4 -276 0
-5 -277 0
-6 -278 0
-7 -279 0
-8 -280 0
-1 -49 0
-2 -50 0
-3 -51 0
-4 -52 0
-5 -53 0
-6 -54 0
-7 -55 0
-8 -56 0
-1 -201 0
-2 -202 0
-3 -203 0
-4 -204 0
-5 -205 0
-6 -206 0
-7 -207 0
-8 -208 0
-1 -41 0
-2 -42 0
-3 -43 0
-4 -44 0
-5 -45 0
-6 -46 0
-7 -47 0
-8 -48 0
-1 -65 0
-2 -66 0
-3 -67 0
-4 -68 0
-5 -69 0
-6 -70 0
-7 -71 0
-8 -72 0
-1 -105 0
-2 -106 0
-3 -107 0
-4 -108 0
-5 -109 0
-6 -110 0
-7 -111 0
-8 -112 0
-1 -153 0
-2 -154 0
-3 -155 0
-4 -156 0
-5 -157 0
-6 -158 0
-7 -159 0
-8 -160 0
-1 -265 0
-2 -266 0
-3 -267 0
-4 -268 0
-5 -269 0
-6 -270 0
-7 -271 0
-8 -272 0
-1 -121 0
-2 -122 0
-3 -123 0
-4 -124 0
-5 -125 0
-6 -126 0
-7 -127 0
-8 -128 0
-9 -145 0
-10 -146 0
-11 -147 0
-12 -148 0
-13 -149 0
-14 -150 0
-15 -151 0
-16 -152 0
-9 -257 0
-10 -258 0
-11 -259 0
-12 -260 0
-13 -261 0
-14 -262 0
-15 -263 0
-16 -264 0
-9 -217 0
-10 -218 0
-11 -219 0
-12 -220 0
-13 -221 0
-14 -222 0
-15 -223 0
-16 -224 0
-9 -73 0
-10 -74 0
-11 -75 0
-12 -76 0
-13 -77 0
-14 -78 0
-15 -79 0
-16 -80 0
-9 -249 0
-10 -250 0
-11 -251 0
-12 -252 0
-13 -253 0
-14 -254 0
-15 -255 0
-16 -256 0
-9 -33 0
-10 -34 0
-11 -35 0
-12 -36 0
-13 -37 0
-14 -38 0
-15 -39 0
-16 -40 0
-9 -89 0
-10 -90 0
-11 -91 0
-12 -92 0
-13 -93 0
-14 -94 0
-15 -95 0
-16 -96 0
-9 -137 0
-10 -138 0
-11 -139 0
-12 -140 0
-13 -141 0
-14 -142 0
-15 -143 0
-16 -144 0
-9 -233 0
-10 -234 0
-11 -235 0
-12 -236 0
-13 -237 0
-14 -238 0
-15 -239 0
-16 -240 0
-9 -81 0
-10 -82 0
-11 -83 0
-12 -84 0
-13 -85 0
-14 -86 0
-15 -87 0
-16 -88 0
-9 -193 0
-10 -194 0
-11 -195 0
-12 -196 0
-13 -197 0
-14 -198 0
-15 -199 0
-16 -200 0
-9 -313 0
-10 -314 0
-11 -315 0
-12 -316 0
-13 -317 0
-14 -318 0
-15 -319 0
-16 -320 0
-9 -265 0
-10 -266 0
-11 -267 0
-12 -268 0
-13 -269 0
-14 -270 0
-15 -271 0
-16 -272 0
-9 -25 0
-10 -26 0
-11 -27 0
-12 -28 0
-13 -29 0
-14 -30 0
-15 -31 0
-16 -32 0
-9 -161 0
-10 -162 0
-11 -163 0
-12 -164 0
-13 -165 0
-14 -166 0
-15 -167 0
-16 -168 0
-9 -121 0
-10 -122 0
-11 -123 0
-12 -124 0
-13 -125 0
-14 -126 0
-15 -127 0
-16 -128 0
-17 -321 0
-18 -322 0
-19 -323 0
-20 -324 0
-21 -325 0
-22 -326 0
-23 -327 0
-24 -328 0
-17 -113 0
-18 -114 0
-19 -115 0
-20 -116 0
-21 -117 0
-22 -118 0
-23 -119 0
-24 -120 0
-17 -273 0
-18 -274 0
-19 -275 0
-20 -276 0
-21 -277 0
-22 -278 0
-23 -279 0
-24 -280 0
-17 -225 0
-18 -226 0
-19 -227 0
-20 -228 0
-21 -229 0
-22 -230 0
-23 -231 0
-24 -232 0
-17 -281 0
-18 -282 0
-19 -283 0
-20 -284 0
-21 -285 0
-22 -286 0
-23 -287 0
-24 -288 0
-17 -297 0
-18 -298 0
-19 -299 0
-20 -300 0
-21 -301 0
-22 -302 0
-23 -303 0
-24 -304 0
-17 -97 0
-18 -98 0
-19 -99 0
-20 -100 0
-21 -101 0
-22 -102 0
-23 -103 0
-24 -104 0
-17 -49 0
-18 -50 0
-19 -51 0
-20 -52 0
-21 -53 0
-22 -54 0
-23 -55 0
-24 -56 0
-17 -201 0
-18 -202 0
-19 -203 0
-20 -204 0
-21 -205 0
-22 -206 0
-23 -207 0
-24 -208 0
-17 -305 0
-18 -306 0
-19 -307 0
-20 -308 0
-21 -309 0
-22 -310 0
-23 -311 0
-24 -312 0
-17 -209 0
-18 -210 0
-19 -211 0
-20 -212 0
-21 -213 0
-22 -214 0
-23 -215 0
-24 -216 0
-17 -57 0
-18 -58 0
-19 -59 0
-20 -60 0
-21 -61 0
-22 -62 0
-23 -63 0
-24 -64 0
-17 -185 0
-18 -186 0
-19 -187 0
-20 -188 0
-21 -189 0
-22 -190 0
-23 -191 0
-24 -192 0
-17 -153 0
-18 -154 0
-19 -155 0
-20 -156 0
-21 -157 0
-22 -158 0
-23 -159 0
-24 -160 0
-17 -169 0
-18 -170 0
-19 -171 0
-20 -172 0
-21 -173 0
-22 -174 0
-23 -175 0
-24 -176 0
-25 -113 0
-26 -114 0
-27 -115 0
-28 -116 0
-29 -117 0
-30 -118 0
-31 -119 0
-32 -120 0
-25 -257 0
-26 -258 0
-27 -259 0
-28 -260 0
-29 -261 0
-30 -262 0
-31 -263 0
-32 -264 0
-25 -73 0
-26 -74 0
-27 -75 0
-28 -76 0
-29 -77 0
-30 -78 0
-31 -79 0
-32 -80 0
-25 -249 0
-26 -250 0
-27 -251 0
-28 -252 0
-29 -253 0
-30 -254 0
-31 -255 0
-32 -256 0
-25 -81 0
-26 -82 0
-27 -83 0
-28 -84 0
-29 -85 0
-30 -86 0
-31 -87 0
-32 -88 0
-25 -49 0
-26 -50 0
-27 -51 0
-28 -52 0
-29 -53 0
-30 -54 0
-31 -55 0
-32 -56 0
-25 -305 0
-26 -306 0
-27 -307 0
-28 -308 0
-29 -309 0
-30 -310 0
-31 -311 0
-32 -312 0
-25 -193 0
-26 -194 0
-27 -195 0
-28 -196 0
-29 -197 0
-30 -198 0
-31 -199 0
-32 -200 0
-25 -281 0
-26 -282 0
-27 -283 0
-28 -284 0
-29 -285 0
-30 -286 0
-31 -287 0
-32 -288 0
-25 -313 0
-26 -314 0
-27 -315 0
-28 -316 0
-29 -317 0
-30 -318 0
-31 -319 0
-32 -320 0
-25 -33 0
-26 -34 0
-27 -35 0
-28 -36 0
-29 -37 0
-30 -38 0
-31 -39 0
-32 -40 0
-25 -297 0
-26 -298 0
-27 -299 0
-28 -300 0
-29 -301 0
-30 -302 0
-31 -303 0
-32 -304 0
-25 -185 0
-26 -186 0
-27 -187 0
-28 -188 0
-29 -189 0
-30 -190 0
-31 -191 0
-32 -192 0
-25 -169 0
-26 -170 0
-27 -171 0
-28 -172 0
-29 -173 0
-30 -174 0
-31 -175 0
-32 -176 0
-25 -121 0
-26 -122 0
-27 -123 0
-28 -124 0
-29 -125 0
-30 -126 0
-31 -127 0
-32 -128 0
-33 -145 0
-34 -146 0
-35 -147 0
-36 -148 0
-37 -149 0
-38 -150 0
-39 -151 0
-40 -152 0
-33 -257 0
-34 -258 0
-35 -259 0
-36 -260 0
-37 -261 0
-38 -262 0
-39 -263 0
-40 -264 0
-33 -217 0
-34 -218 0
-35 -219 0
-36 -220 0
-37 -221 0
-38 -222 0
-39 -223 0
-40 -224 0
-33 -73 0
-34 -74 0
-35 -75 0
-36 -76 0
-37 -77 0
-38 -78 0
-39 -79 0
-40 -80 0
-33 -249 0
-34 -250 0
-35 -251 0
-36 -252 0
-37 -253 0
-38 -254 0
-39 -255 0
-40 -256 0
-33 -81 0
-34 -82 0
-35 -83 0
-36 -84 0
-37 -85 0
-38 -86 0
-39 -87 0
-40 -88 0
-33 -49 0
-34 -50 0
-35 -51 0
-36 -52 0
-37 -53 0
-38 -54 0
-39 -55 0
-40 -56 0
-33 -305 0
-34 -306 0
-35 -307 0
-36 -308 0
-37 -309 0
-38 -310 0
-39 -311 0
-40 -312 0
-33 -193 0
-34 -194 0
-35 -195 0
-36 -196 0
-37 -197 0
-38 -198 0
-39 -199 0
-40 -200 0
-33 -313 0
-34 -314 0
-35 -315 0
-36 -316 0
-37 -317 0
-38 -318 0
-39 -319 0
-40 -320 0
-33 -121 0
-34 -122 0
-35 -123 0
-36 -124 0
-37 -125 0
-38 -126 0
-39 -127 0
-40 -128 0
-33 -89 0
-34 -90 0
-35 -91 0
-36 -92 0
-37 -93 0
-38 -94 0
-39 -95 0
-40 -96 0
-33 -105 0
-34 -106 0
-35 -107 0
-36 -108 0
-37 -109 0
-38 -110 0
-39 -111 0
-40 -112 0
-33 -185 0
-34 -186 0
-35 -187 0
-36 -188 0
-37 -189 0
-38 -190 0
-39 -191 0
-40 -192 0
-41 -321 0
-42 -322 0
-43 -323 0
-44 -324 0
-45 -325 0
-46 -326 0
-47 -327 0
-48 -328 0
-41 -145 0
-42 -146 0
-43 -147 0
-44 -148 0
-45 -149 0
-46 -150 0
-47 -151 0
-48 -152 0
-41 -217 0
-42 -218 0
-43 -219 0
-44 -220 0
-45 -221 0
-46 -222 0
-47 -223 0
-48 -224 0
-41 -137 0
-42 -138 0
-43 -139 0
-44 -140 0
-45 -141 0
-46 -142 0
-47 -143 0
-48 -144 0
-41 -233 0
-42 -234 0
-43 -235 0
-44 -236 0
-45 -237 0
-46 -238 0
-47 -239 0
-48 -240 0
-41 -177 0
-42 -178 0
-43 -179 0
-44 -180 0
-45 -181 0
-46 -182 0
-47 -183 0
-48 -184 0
-41 -289 0
-42 -290 0
-43 -291 0
-44 -292 0
-45 -293 0
-46 -294 0
-47 -295 0
-48 -296 0
-41 -97 0
-42 -98 0
-43 -99 0
-44 -100 0
-45 -101 0
-46 -102 0
-47 -103 0
-48 -104 0
-41 -273 0
-42 -274 0
-43 -275 0
-44 -276 0
-45 -277 0
-46 -278 0
-47 -279 0
-48 -280 0
-41 -201 0
-42 -202 0
-43 -203 0
-44 -204 0
-45 -205 0
-46 -206 0
-47 -207 0
-48 -208 0
-41 -65 0
-42 -66 0
-43 -67 0
-44 -68 0
-45 -69 0
-46 -70 0
-47 -71 0
-48 -72 0
-41 -153 0
-42 -154 0
-43 -155 0
-44 -156 0
-45 -157 0
-46 -158 0
-47 -159 0
-48 -160 0
-41 -265 0
-42 -266 0
-43 -267 0
-44 -268 0
-45 -269 0
-46 -270 0
-47 -271 0
-48 -272 0
-41 -57 0
-42 -58 0
-43 -59 0
-44 -60 0
-45 -61 0
-46 -62 0
-47 -63 0
-48 -64 0
-41 -105 0
-42 -106 0
-43 -107 0
-44 -108 0
-45 -109 0
-46 -110 0
-47 -111 0
-48 -112 0
-49 -321 0
-50 -322 0
-51 -323 0
-52 -324 0
-53 -325 0
-54 -326 0
-55 -327 0
-56 -328 0
-49 -113 0
-50 -114 0
-51 -115 0
-52 -116 0
-53 -117 0
-54 -118 0
-55 -119 0
-56 -120 0
-49 -145 0
-50 -146 0
-51 -147 0
-52 -148 0
-53 -149 0
-54 -150 0
-55 -151 0
-56 -152 0
-49 -257 0
-50 -258 0
-51 -259 0
-52 -260 0
-53 -261 0
-54 -262 0
-55 -263 0
-56 -264 0
-49 -201 0
-50 -202 0
-51 -203 0
-52 -204 0
-53 -205 0
-54 -206 0
-55 -207 0
-56 -208 0
-49 -305 0
-50 -306 0
-51 -307 0
-52 -308 0
-53 -309 0
-54 -310 0
-55 -311 0
-56 -312 0
-49 -193 0
-50 -194 0
-51 -195 0
-52 -196 0
-53 -197 0
-54 -198 0
-55 -199 0
-56 -200 0
-49 -105 0
-50 -106 0
-51 -107 0
-52 -108 0
-53 -109 0
-54 -110 0
-55 -111 0
-56 -112 0
-49 -121 0
-50 -122 0
-51 -123 0
-52 -124 0
-53 -125 0
-54 -126 0
-55 -127 0
-56 -128 0
-49 -65 0
-50 -66 0
-51 -67 0
-52 -68 0
-53 -69 0
-54 -70 0
-55 -71 0
-56 -72 0
-49 -297 0
-50 -298 0
-51 -299 0
-52 -300 0
-53 -301 0
-54 -302 0
-55 -303 0
-56 -304 0
-49 -185 0
-50 -186 0
-51 -187 0
-52 -188 0
-53 -189 0
-54 -190 0
-55 -191 0
-56 -192 0
-57 -321 0
-58 -322 0
-59 -323 0
-60 -324 0
-61 -325 0
-62 -326 0
-63 -327 0
-64 -328 0
-57 -233 0
-58 -234 0
-59 -235 0
-60 -236 0
-61 -237 0
-62 -238 0
-63 -239 0
-64 -240 0
-57 -177 0
-58 -178 0
-59 -179 0
-60 -180 0
-61 -181 0
-62 -182 0
-63 -183 0
-64 -184 0
-57 -289 0
-58 -290 0
-59 -291 0
-60 -292 0
-61 -293 0
-62 -294 0
-63 -295 0
-64 -296 0
-57 -97 0
-58 -98 0
-59 -99 0
-60 -100 0
-61 -101 0
-62 -102 0
-63 -103 0
-64 -104 0
-57 -273 0
-58 -274 0
-59 -275 0
-60 -276 0
-61 -277 0
-62 -278 0
-63 -279 0
-64 -280 0
-57 -225 0
-58 -226 0
-59 -227 0
-60 -228 0
-61 -229 0
-62 -230 0
-63 -231 0
-64 -232 0
-57 -281 0
-58 -282 0
-59 -283 0
-60 -284 0
-61 -285 0
-62 -286 0
-63 -287 0
-64 -288 0
-57 -209 0
-58 -210 0
-59 -211 0
-60 -212 0
-61 -213 0
-62 -214 0
-63 -215 0
-64 -216 0
-57 -129 0
-58 -130 0
-59 -131 0
-60 -132 0
-61 -133 0
-62 -134 0
-63 -135 0
-64 -136 0
-57 -153 0
-58 -154 0
-59 -155 0
-60 -156 0
-61 -157 0
-62 -158 0
-63 -159 0
-64 -160 0
-57 -169 0
-58 -170 0
-59 -171 0
-60 -172 0
-61 -173 0
-62 -174 0
-63 -175 0
-64 -176 0
-57 -161 0
-58 -162 0
-59 -163 0
-60 -164 0
-61 -165 0
-62 -166 0
-63 -167 0
-64 -168 0
-57 -241 0
-58 -242 0
-59 -243 0
-60 -244 0
-61 -245 0
-62 -246 0
-63 -247 0
-64 -248 0
-65 -321 0
-66 -322 0
-67 -323 0
-68 -324 0
-69 -325 0
-70 -326 0
-71 -327 0
-72 -328 0
-65 -145 0
-66 -146 0
-67 -147 0
-68 -148 0
-69 -149 0
-70 -150 0
-71 -151 0
-72 -152 0
-65 -257 0
-66 -258 0
-67 -259 0
-68 -260 0
-69 -261 0
-70 -262 0
-71 -263 0
-72 -264 0
-65 -217 0
-66 -218 0
-67 -219 0
-68 -220 0
-69 -221 0
-70 -222 0
-71 -223 0
-72 -224 0
-65 -137 0
-66 -138 0
-67 -139 0
-68 -140 0
-69 -141 0
-70 -142 0
-71 -143 0
-72 -144 0
-65 -177 0
-66 -178 0
-67 -179 0
-68 -180 0
-69 -181 0
-70 -182 0
-71 -183 0
-72 -184 0
-65 -97 0
-66 -98 0
-67 -99 0
-68 -100 0
-69 -101 0
-70 -102 0
-71 -103 0
-72 -104 0
-65 -201 0
-66 -202 0
-67 -203 0
-68 -204 0
-69 -205 0
-70 -206 0
-71 -207 0
-72 -208 0
-65 -105 0
-66 -106 0
-67 -107 0
-68 -108 0
-69 -109 0
-70 -110 0
-71 -111 0
-72 -112 0
-65 -265 0
-66 -266 0
-67 -267 0
-68 -268 0
-69 -269 0
-70 -270 0
-71 -271 0
-72 -272 0
-65 -153 0
-66 -154 0
-67 -155 0
-68 -156 0
-69 -157 0
-70 -158 0
-71 -159 0
-72 -160 0
-65 -121 0
-66 -122 0
-67 -123 0
-68 -124 0
-69 -125 0
-70 -126 0
-71 -127 0
-72 -128 0
-73 -257 0
-74 -258 0
-75 -259 0
-76 -260 0
-77 -261 0
-78 -262 0
-79 -263 0
-80 -264 0
-73 -217 0
-74 -218 0
-75 -219 0
-76 -220 0
-77 -221 0
-78 -222 0
-79 -223 0
-80 -224 0
-73 -137 0
-74 -138 0
-75 -139 0
-76 -140 0
-77 -141 0
-78 -142 0
-79 -143 0
-80 -144 0
-73 -233 0
-74 -234 0
-75 -235 0
-76 -236 0
-77 -237 0
-78 -238 0
-79 -239 0
-80 -240 0
-73 -249 0
-74 -250 0
-75 -251 0
-76 -252 0
-77 -253 0
-78 -254 0
-79 -255 0
-80 -256 0
-73 -81 0
-74 -82 0
-75 -83 0
-76 -84 0
-77 -85 0
-78 -86 0
-79 -87 0
-80 -88 0
-73 -89 0
-74 -90 0
-75 -91 0
-76 -92 0
-77 -93 0
-78 -94 0
-79 -95 0
-80 -96 0
-73 -161 0
-74 -162 0
-75 -163 0
-76 -164 0
-77 -165 0
-78 -166 0
-79 -167 0
-80 -168 0
-73 -313 0
-74 -314 0
-75 -315 0
-76 -316 0
-77 -317 0
-78 -318 0
-79 -319 0
-80 -320 0
-73 -169 0
-74 -170 0
-75 -171 0
-76 -172 0
-77 -173 0
-78 -174 0
-79 -175 0
-80 -176 0
-73 -129 0
-74 -130 0
-75 -131 0
-76 -132 0
-77 -133 0
-78 -134 0
-79 -135 0
-80 -136 0
-73 -241 0
-74 -242 0
-75 -243 0
-76 -244 0
-77 -245 0
-78 -246 0
-79 -247 0
-80 -248 0
-81 -233 0
-82 -234 0
-83 -235 0
-84 -236 0
-85 -237 0
-86 -238 0
-87 -239 0
-88 -240 0
-81 -249 0
-82 -250 0
-83 -251 0
-84 -252 0
-85 -253 0
-86 -254 0
-87 -255 0
-88 -256 0
-81 -313 0
-82 -314 0
-83 -315 0
-84 -316 0
-85 -317 0
-86 -318 0
-87 -319 0
-88 -320 0
-81 -169 0
-82 -170 0
-83 -171 0
-84 -172 0
-85 -173 0
-86 -174 0
-87 -175 0
-88 -176 0
-81 -161 0
-82 -162 0
-83 -163 0
-84 -164 0
-85 -165 0
-86 -166 0
-87 -167 0
-88 -168 0
-81 -241 0
-82 -242 0
-83 -243 0
-84 -244 0
-85 -245 0
-86 -246 0
-87 -247 0
-88 -248 0
-81 -281 0
-82 -282 0
-83 -283 0
-84 -284 0
-85 -285 0
-86 -286 0
-87 -287 0
-88 -288 0
-81 -89 0
-82 -90 0
-83 -91 0
-84 -92 0
-85 -93 0
-86 -94 0
-87 -95 0
-88 -96 0
-81 -209 0
-82 -210 0
-83 -211 0
-84 -212 0
-85 -213 0
-86 -214 0
-87 -215 0
-88 -216 0
-81 -185 0
-82 -186 0
-83 -187 0
-84 -188 0
-85 -189 0
-86 -190 0
-87 -191 0
-88 -192 0
-81 -129 0
-82 -130 0
-83 -131 0
-84 -132 0
-85 -133 0
-86 -134 0
-87 -135 0
-88 -136 0
-89 -145 0
-90 -146 0
-91 -147 0
-92 -148 0
-93 -149 0
-94 -150 0
-95 -151 0
-96 -152 0
-89 -257 0
-90 -258 0
-91 -259 0
-92 -260 0
-93 -261 0
-94 -262 0
-95 -263 0
-96 -264 0
-89 -217 0
-90 -218 0
-91 -219 0
-92 -220 0
-93 -221 0
-94 -222 0
-95 -223 0
-96 -224 0
-89 -137 0
-90 -138 0
-91 -139 0
-92 -140 0
-93 -141 0
-94 -142 0
-95 -143 0
-96 -144 0
-89 -233 0
-90 -234 0
-91 -235 0
-92 -236 0
-93 -237 0
-94 -238 0
-95 -239 0
-96 -240 0
-89 -177 0
-90 -178 0
-91 -179 0
-92 -180 0
-93 -181 0
-94 -182 0
-95 -183 0
-96 -184 0
-89 -249 0
-90 -250 0
-91 -251 0
-92 -252 0
-93 -253 0
-94 -254 0
-95 -255 0
-96 -256 0
-89 -289 0
-90 -290 0
-91 -291 0
-92 -292 0
-93 -293 0
-94 -294 0
-95 -295 0
-96 -296 0
-89 -161 0
-90 -162 0
-91 -163 0
-92 -164 0
-93 -165 0
-94 -166 0
-95 -167 0
-96 -168 0
-89 -265 0
-90 -266 0
-91 -267 0
-92 -268 0
-93 -269 0
-94 -270 0
-95 -271 0
-96 -272 0
-89 -129 0
-90 -130 0
-91 -131 0
-92 -132 0
-93 -133 0
-94 -134 0
-95 -135 0
-96 -136 0
-89 -241 0
-90 -242 0
-91 -243 0
-92 -244 0
-93 -245 0
-94 -246 0
-95 -247 0
-96 -248 0
-97 -321 0
-98 -322 0
-99 -323 0
-100 -324 0
-101 -325 0
-102 -326 0
-103 -327 0
-104 -328 0
-97 -137 0
-98 -138 0
-99 -139 0
-100 -140 0
-101 -141 0
-102 -142 0
-103 -143 0
-104 -144 0
-97 -233 0
-98 -234 0
-99 -235 0
-100 -236 0
-101 -237 0
-102 -238 0
-103 -239 0
-104 -240 0
-97 -177 0
-98 -178 0
-99 -179 0
-100 -180 0
-101 -181 0
-102 -182 0
-103 -183 0
-104 -184 0
-97 -289 0
-98 -290 0
-99 -291 0
-100 -292 0
-101 -293 0
-102 -294 0
-103 -295 0
-104 -296 0
-97 -273 0
-98 -274 0
-99 -275 0
-100 -276 0
-101 -277 0
-102 -278 0
-103 -279 0
-104 -280 0
-97 -153 0
-98 -154 0
-99 -155 0
-100 -156 0
-101 -157 0
-102 -158 0
-103 -159 0
-104 -160 0
-97 -225 0
-98 -226 0
-99 -227 0
-100 -228 0
-101 -229 0
-102 -230 0
-103 -231 0
-104 -232 0
-97 -209 0
-98 -210 0
-99 -211 0
-100 -212 0
-101 -213 0
-102 -214 0
-103 -215 0
-104 -216 0
-97 -265 0
-98 -266 0
-99 -267 0
-100 -268 0
-101 -269 0
-102 -270 0
-103 -271 0
-104 -272 0
-97 -129 0
-98 -130 0
-99 -131 0
-100 -132 0
-101 -133 0
-102 -134 0
-103 -135 0
-104 -136 0
-105 -321 0
-106 -322 0
-107 -323 0
-108 -324 0
-109 -325 0
-110 -326 0
-111 -327 0
-112 -328 0
-105 -113 0
-106 -114 0
-107 -115 0
-108 -116 0
-109 -117 0
-110 -118 0
-111 -119 0
-112 -120 0
-105 -145 0
-106 -146 0
-107 -147 0
-108 -148 0
-109 -149 0
-110 -150 0
-111 -151 0
-112 -152 0
-105 -257 0
-106 -258 0
-107 -259 0
-108 -260 0
-109 -261 0
-110 -262 0
-111 -263 0
-112 -264 0
-105 -217 0
-106 -218 0
-107 -219 0
-108 -220 0
-109 -221 0
-110 -222 0
-111 -223 0
-112 -224 0
-105 -201 0
-106 -202 0
-107 -203 0
-108 -204 0
-109 -205 0
-110 -206 0
-111 -207 0
-112 -208 0
-105 -305 0
-106 -306 0
-107 -307 0
-108 -308 0
-109 -309 0
-110 -310 0
-111 -311 0
-112 -312 0
-105 -193 0
-106 -194 0
-107 -195 0
-108 -196 0
-109 -197 0
-110 -198 0
-111 -199 0
-112 -200 0
-105 -121 0
-106 -122 0
-107 -123 0
-108 -124 0
-109 -125 0
-110 -126 0
-111 -127 0
-112 -128 0
-105 -153 0
-106 -154 0
-107 -155 0
-108 -156 0
-109 -157 0
-110 -158 0
-111 -159 0
-112 -160 0
-105 -265 0
-106 -266 0
-107 -267 0
-108 -268 0
-109 -269 0
-110 -270 0
-111 -271 0
-112 -272 0
-113 -321 0
-114 -322 0
-115 -323 0
-116 -324 0
-117 -325 0
-118 -326 0
-119 -327 0
-120 -328 0
-113 -201 0
-114 -202 0
-115 -203 0
-116 -204 0
-117 -205 0
-118 -206 0
-119 -207 0
-120 -208 0
-113 -305 0
-114 -306 0
-115 -307 0
-116 -308 0
-117 -309 0
-118 -310 0
-119 -311 0
-120 -312 0
-113 -297 0
-114 -298 0
-115 -299 0
-116 -300 0
-117 -301 0
-118 -302 0
-119 -303 0
-120 -304 0
-113 -273 0
-114 -274 0
-115 -275 0
-116 -276 0
-117 -277 0
-118 -278 0
-119 -279 0
-120 -280 0
-113 -225 0
-114 -226 0
-115 -227 0
-116 -228 0
-117 -229 0
-118 -230 0
-119 -231 0
-120 -232 0
-113 -193 0
-114 -194 0
-115 -195 0
-116 -196 0
-117 -197 0
-118 -198 0
-119 -199 0
-120 -200 0
-113 -281 0
-114 -282 0
-115 -283 0
-116 -284 0
-117 -285 0
-118 -286 0
-119 -287 0
-120 -288 0
-113 -185 0
-114 -186 0
-115 -187 0
-116 -188 0
-117 -189 0
-118 -190 0
-119 -191 0
-120 -192 0
-113 -153 0
-114 -154 0
-115 -155 0
-116 -156 0
-117 -157 0
-118 -158 0
-119 -159 0
-120 -160 0
-113 -121 0
-114 -122 0
-115 -123 0
-116 -124 0
-117 -125 0
-118 -126 0
-119 -127 0
-120 -128 0
-121 -145 0
-122 -146 0
-123 -147 0
-124 -148 0
-125 -149 0
-126 -150 0
-127 -151 0
-128 -152 0
-121 -257 0
-122 -258 0
-123 -259 0
-124 -260 0
-125 -261 0
-126 -262 0
-127 -263 0
-128 -264 0
-121 -217 0
-122 -218 0
-123 -219 0
-124 -220 0
-125 -221 0
-126 -222 0
-127 -223 0
-128 -224 0
-121 -249 0
-122 -250 0
-123 -251 0
-124 -252 0
-125 -253 0
-126 -254 0
-127 -255 0
-128 -256 0
-121 -201 0
-122 -202 0
-123 -203 0
-124 -204 0
-125 -205 0
-126 -206 0
-127 -207 0
-128 -208 0
-121 -305 0
-122 -306 0
-123 -307 0
-124 -308 0
-125 -309 0
-126 -310 0
-127 -311 0
-128 -312 0
-121 -193 0
-122 -194 0
-123 -195 0
-124 -196 0
-125 -197 0
-126 -198 0
-127 -199 0
-128 -200 0
-121 -265 0
-122 -266 0
-123 -267 0
-124 -268 0
-125 -269 0
-126 -270 0
-127 -271 0
-128 -272 0
-129 -137 0
-130 -138 0
-131 -139 0
-132 -140 0
-133 -141 0
-134 -142 0
-135 -143 0
-136 -144 0
-129 -233 0
-130 -234 0
-131 -235 0
-132 -236 0
-133 -237 0
-134 -238 0
-135 -239 0
-136 -240 0
-129 -177 0
-130 -178 0
-131 -179 0
-132 -180 0
-133 -181 0
-134 -182 0
-135 -183 0
-136 -184 0
-129 -289 0
-130 -290 0
-131 -291 0
-132 -292 0
-133 -293 0
-134 -294 0
-135 -295 0
-136 -296 0
-129 -273 0
-130 -274 0
-131 -275 0
-132 -276 0
-133 -277 0
-134 -278 0
-135 -279 0
-136 -280 0
-129 -225 0
-130 -226 0
-131 -227 0
-132 -228 0
-133 -229 0
-134 -230 0
-135 -231 0
-136 -232 0
-129 -281 0
-130 -282 0
-131 -283 0
-132 -284 0
-133 -285 0
-134 -286 0
-135 -287 0
-136 -288 0
-129 -209 0
-130 -210 0
-131 -211 0
-132 -212 0
-133 -213 0
-134 -214 0
-135 -215 0
-136 -216 0
-129 -169 0
-130 -170 0
-131 -171 0
-132 -172 0
-133 -173 0
-134 -174 0
-135 -175 0
-136 -176 0
-129 -161 0
-130 -162 0
-131 -163 0
-132 -164 0
-133 -165 0
-134 -166 0
-135 -167 0
-136 -168 0
-129 -241 0
-130 -242 0
-131 -243 0
-132 -244 0
-133 -245 0
-134 -246 0
-135 -247 0
-136 -248 0
-137 -145 0
-138 -146 0
-139 -147 0
-140 -148 0
-141 -149 0
-142 -150 0
-143 -151 0
-144 -152 0
-137 -257 0
-138 -258 0
-139 -259 0
-140 -260 0
-141 -261 0
-142 -262 0
-143 -263 0
-144 -264 0
-137 -217 0
-138 -218 0
-139 -219 0
-140 -220 0
-141 -221 0
-142 -222 0
-143 -223 0
-144 -224 0
-137 -233 0
-138 -234 0
-139 -235 0
-140 -236 0
-141 -237 0
-142 -238 0
-143 -239 0
-144 -240 0
-137 -177 0
-138 -178 0
-139 -179 0
-140 -180 0
-141 -181 0
-142 -182 0
-143 -183 0
-144 -184 0
-137 -265 0
-138 -266 0
-139 -267 0
-140 -268 0
-141 -269 0
-142 -270 0
-143 -271 0
-144 -272 0
-137 -289 0
-138 -290 0
-139 -291 0
-140 -292 0
-141 -293 0
-142 -294 0
-143 -295 0
-144 -296 0
-137 -161 0
-138 -162 0
-139 -163 0
-140 -164 0
-141 -165 0
-142 -166 0
-143 -167 0
-144 -168 0
-145 -257 0
-146 -258 0
-147 -259 0
-148 -260 0
-149 -261 0
-150 -262 0
-151 -263 0
-152 -264 0
-145 -217 0
-146 -218 0
-147 -219 0
-148 -220 0
-149 -221 0
-150 -222 0
-151 -223 0
-152 -224 0
-145 -265 0
-146 -266 0
-147 -267 0
-148 -268 0
-149 -269 0
-150 -270 0
-151 -271 0
-152 -272 0
-145 -177 0
-146 -178 0
-147 -179 0
-148 -180 0
-149 -181 0
-150 -182 0
-151 -183 0
-152 -184 0
-145 -201 0
-146 -202 0
-147 -203 0
-148 -204 0
-149 -205 0
-150 -206 0
-151 -207 0
-152 -208 0
-145 -193 0
-146 -194 0
-147 -195 0
-148 -196 0
-149 -197 0
-150 -198 0
-151 -199 0
-152 -200 0
-153 -321 0
-154 -322 0
-155 -323 0
-156 -324 0
-157 -325 0
-158 -326 0
-159 -327 0
-160 -328 0
-153 -177 0
-154 -178 0
-155 -179 0
-156 -180 0
-157 -181 0
-158 -182 0
-159 -183 0
-160 -184 0
-153 -289 0
-154 -290 0
-155 -291 0
-156 -292 0
-157 -293 0
-158 -294 0
-159 -295 0
-160 -296 0
-153 -273 0
-154 -274 0
-155 -275 0
-156 -276 0
-157 -277 0
-158 -278 0
-159 -279 0
-160 -280 0
-153 -225 0
-154 -226 0
-155 -227 0
-156 -228 0
-157 -229 0
-158 -230 0
-159 -231 0
-160 -232 0
-153 -201 0
-154 -202 0
-155 -203 0
-156 -204 0
-157 -205 0
-158 -206 0
-159 -207 0
-160 -208 0
-153 -265 0
-154 -266 0
-155 -267 0
-156 -268 0
-157 -269 0
-158 -270 0
-159 -271 0
-160 -272 0
-161 -217 0
-162 -218 0
-163 -219 0
-164 -220 0
-165 -221 0
-166 -222 0
-167 -223 0
-168 -224 0
-161 -233 0
-162 -234 0
-163 -235 0
-164 -236 0
-165 -237 0
-166 -238 0
-167 -239 0
-168 -240 0
-161 -177 0
-162 -178 0
-163 -179 0
-164 -180 0
-165 -181 0
-166 -182 0
-167 -183 0
-168 -184 0
-161 -249 0
-162 -250 0
-163 -251 0
-164 -252 0
-165 -253 0
-166 -254 0
-167 -255 0
-168 -256 0
-161 -289 0
-162 -290 0
-163 -291 0
-164 -292 0
-165 -293 0
-166 -294 0
-167 -295 0
-168 -296 0
-161 -313 0
-162 -314 0
-163 -315 0
-164 -316 0
-165 -317 0
-166 -318 0
-167 -319 0
-168 -320 0
-161 -209 0
-162 -210 0
-163 -211 0
-164 -212 0
-165 -213 0
-166 -214 0
-167 -215 0
-168 -216 0
-161 -169 0
-162 -170 0
-163 -171 0
-164 -172 0
-165 -173 0
-166 -174 0
-167 -175 0
-168 -176 0
-161 -241 0
-162 -242 0
-163 -243 0
-164 -244 0
-165 -245 0
-166 -246 0
-167 -247 0
-168 -248 0
-169 -249 0
-170 -250 0
-171 -251 0
-172 -252 0
-173 -253 0
-174 -254 0
-175 -255 0
-176 -256 0
-169 -225 0
-170 -226 0
-171 -227 0
-172 -228 0
-173 -229 0
-174 -230 0
-175 -231 0
-176 -232 0
-169 -305 0
-170 -306 0
-171 -307 0
-172 -308 0
-173 -309 0
-174 -310 0
-175 -311 0
-176 -312 0
-169 -281 0
-170 -282 0
-171 -283 0
-172 -284 0
-173 -285 0
-174 -286 0
-175 -287 0
-176 -288 0
-169 -313 0
-170 -314 0
-171 -315 0
-172 -316 0
-173 -317 0
-174 -318 0
-175 -319 0
-176 -320 0
-169 -209 0
-170 -210 0
-171 -211 0
-172 -212 0
-173 -213 0
-174 -214 0
-175 -215 0
-176 -216 0
-169 -297 0
-170 -298 0
-171 -299 0
-172 -300 0
-173 -301 0
-174 -302 0
-175 -303 0
-176 -304 0
-169 -185 0
-170 -186 0
-171 -187 0
-172 -188 0
-173 -189 0
-174 -190 0
-175 -191 0
-176 -192 0
-169 -241 0
-170 -242 0
-171 -243 0
-172 -244 0
-173 -245 0
-174 -246 0
-175 -247 0
-176 -248 0
-177 -217 0
-178 -218 0
-179 -219 0
-180 -220 0
-181 -221 0
-182 -222 0
-183 -223 0
-184 -224 0
-177 -233 0
-178 -234 0
-179 -235 0
-180 -236 0
-181 -237 0
-182 -238 0
-183 -239 0
-184 -240 0
-177 -289 0
-178 -290 0
-179 -291 0
-180 -292 0
-181 -293 0
-182 -294 0
-183 -295 0
-184 -296 0
-177 -265 0
-178 -266 0
-179 -267 0
-180 -268 0
-181 -269 0
-182 -270 0
-183 -271 0
-184 -272 0
-177 -273 0
-178 -274 0
-179 -275 0
-180 -276 0
-181 -277 0
-182 -278 0
-183 -279 0
-184 -280 0
-185 -249 0
-186 -250 0
-187 -251 0
-188 -252 0
-189 -253 0
-190 -254 0
-191 -255 0
-192 -256 0
-185 -225 0
-186 -226 0
-187 -227 0
-188 -228 0
-189 -229 0
-190 -230 0
-191 -231 0
-192 -232 0
-185 -305 0
-186 -306 0
-187 -307 0
-188 -308 0
-189 -309 0
-190 -310 0
-191 -311 0
-192 -312 0
-185 -193 0
-186 -194 0
-187 -195 0
-188 -196 0
-189 -197 0
-190 -198 0
-191 -199 0
-192 -200 0
-185 -281 0
-186 -282 0
-187 -283 0
-188 -284 0
-189 -285 0
-190 -286 0
-191 -287 0
-192 -288 0
-185 -313 0
-186 -314 0
-187 -315 0
-188 -316 0
-189 -317 0
-190 -318 0
-191 -319 0
-192 -320 0
-185 -209 0
-186 -210 0
-187 -211 0
-188 -212 0
-189 -213 0
-190 -214 0
-191 -215 0
-192 -216 0
-185 -297 0
-186 -298 0
-187 -299 0
-188 -300 0
-189 -301 0
-190 -302 0
-191 -303 0
-192 -304 0
-185 -241 0
-186 -242 0
-187 -243 0
-188 -244 0
-189 -245 0
-190 -246 0
-191 -247 0
-192 -248 0
-193 -257 0
-194 -258 0
-195 -259 0
-196 -260 0
-197 -261 0
-198 -262 0
-199 -263 0
-200 -264 0
-193 -249 0
-194 -250 0
-195 -251 0
-196 -252 0
-197 -253 0
-198 -254 0
-199 -255 0
-200 -256 0
-193 -201 0
-194 -202 0
-195 -203 0
-196 -204 0
-197 -205 0
-198 -206 0
-199 -207 0
-200 -208 0
-193 -305 0
-194 -306 0
-195 -307 0
-196 -308 0
-197 -309 0
-198 -310 0
-199 -311 0
-200 -312 0
-193 -313 0
-194 -314 0
-195 -315 0
-196 -316 0
-197 -317 0
-198 -318 0
-199 -319 0
-200 -320 0
-193 -297 0
-194 -298 0
-195 -299 0
-196 -300 0
-197 -301 0
-198 -302 0
-199 -303 0
-200 -304 0
-201 -321 0
-202 -322 0
-203 -323 0
-204 -324 0
-205 -325 0
-206 -326 0
-207 -327 0
-208 -328 0
-201 -273 0
-202 -274 0
-203 -275 0
-204 -276 0
-205 -277 0
-206 -278 0
-207 -279 0
-208 -280 0
-201 -305 0
-202 -306 0
-203 -307 0
-204 -308 0
-205 -309 0
-206 -310 0
-207 -311 0
-208 -312 0
-201 -297 0
-202 -298 0
-203 -299 0
-204 -300 0
-205 -301 0
-206 -302 0
-207 -303 0
-208 -304 0
-209 -233 0
-210 -234 0
-211 -235 0
-212 -236 0
-213 -237 0
-214 -238 0
-215 -239 0
-216 -240 0
-209 -289 0
-210 -290 0
-211 -291 0
-212 -292 0
-213 -293 0
-214 -294 0
-215 -295 0
-216 -296 0
-209 -273 0
-210 -274 0
-211 -275 0
-212 -276 0
-213 -277 0
-214 -278 0
-215 -279 0
-216 -280 0
-209 -225 0
-210 -226 0
-211 -227 0
-212 -228 0
-213 -229 0
-214 -230 0
-215 -231 0
-216 -232 0
-209 -281 0
-210 -282 0
-211 -283 0
-212 -284 0
-213 -285 0
-214 -286 0
-215 -287 0
-216 -288 0
-209 -313 0
-210 -314 0
-211 -315 0
-212 -316 0
-213 -317 0
-214 -318 0
-215 -319 0
-216 -320 0
-209 -241 0
-210 -242 0
-211 -243 0
-212 -244 0
-213 -245 0
-214 -246 0
-215 -247 0
-216 -248 0
-209 -297 0
-210 -298 0
-211 -299 0
-212 -300 0
-213 -301 0
-214 -302 0
-215 -303 0
-216 -304 0
-217 -257 0
-218 -258 0
-219 -259 0
-220 -260 0
-221 -261 0
-222 -262 0
-223 -263 0
-224 -264 0
-217 -265 0
-218 -266 0
-219 -267 0
-220 -268 0
-221 -269 0
-222 -270 0
-223 -271 0
-224 -272 0
-217 -233 0
-218 -234 0
-219 -235 0
-220 -236 0
-221 -237 0
-222 -238 0
-223 -239 0
-224 -240 0
-217 -249 0
-218 -250 0
-219 -251 0
-220 -252 0
-221 -253 0
-222 -254 0
-223 -255 0
-224 -256 0
-225 -321 0
-226 -322 0
-227 -323 0
-228 -324 0
-229 -325 0
-230 -326 0
-231 -327 0
-232 -328 0
-225 -289 0
-226 -290 0
-227 -291 0
-228 -292 0
-229 -293 0
-230 -294 0
-231 -295 0
-232 -296 0
-225 -273 0
-226 -274 0
-227 -275 0
-228 -276 0
-229 -277 0
-230 -278 0
-231 -279 0
-232 -280 0
-225 -281 0
-226 -282 0
-227 -283 0
-228 -284 0
-229 -285 0
-230 -286 0
-231 -287 0
-232 -288 0
-225 -297 0
-226 -298 0
-227 -299 0
-228 -300 0
-229 -301 0
-230 -302 0
-231 -303 0
-232 -304 0
-225 -241 0
-226 -242 0
-227 -243 0
-228 -244 0
-229 -245 0
-230 -246 0
-231 -247 0
-232 -248 0
-233 -289 0
-234 -290 0
-235 -291 0
-236 -292 0
-237 -293 0
-238 -294 0
-239 -295 0
-240 -296 0
-233 -265 0
-234 -266 0
-235 -267 0
-236 -268 0
-237 -269 0
-238 -270 0
-239 -271 0
-240 -272 0
-233 -241 0
-234 -242 0
-235 -243 0
-236 -244 0
-237 -245 0
-238 -246 0
-239 -247 0
-240 -248 0
-241 -249 0
-242 -250 0
-243 -251 0
-244 -252 0
-245 -253 0
-246 -254 0
-247 -255 0
-248 -256 0
-241 -289 0
-242 -290 0
-243 -291 0
-244 -292 0
-245 -293 0
-246 -294 0
-247 -295 0
-248 -296 0
-241 -281 0
-242 -282 0
-243 -283 0
-244 -284 0
-245 -285 0
-246 -286 0
-247 -287 0
-248 -288 0
-241 -313 0
-242 -314 0
-243 -315 0
-244 -316 0
-245 -317 0
-246 -318 0
-247 -319 0
-248 -320 0
-249 -257 0
-250 -258 0
-251 -259 0
-252 -260 0
-253 -261 0
-254 -262 0
-255 -263 0
-256 -264 0
-249 -313 0
-250 -314 0
-251 -315 0
-252 -316 0
-253 -317 0
-254 -318 0
-255 -319 0
-256 -320 0
-249 -305 0
-250 -306 0
-251 -307 0
-252 -308 0
-253 -309 0
-254 -310 0
-255 -311 0
-256 -312 0
-257 -265 0
-258 -266 0
-259 -267 0
-260 -268 0
-261 -269 0
-262 -270 0
-263 -271 0
-264 -272 0
-265 -289 0
-266 -290 0
-267 -291 0
-268 -292 0
-269 -293 0
-270 -294 0
-271 -295 0
-272 -296 0
-273 -321 0
-274 -322 0
-275 -323 0
-276 -324 0
-277 -325 0
-278 -326 0
-279 -327 0
-280 -328 0
-273 -289 0
-274 -290 0
-275 -291 0
-276 -292 0
-277 -293 0
-278 -294 0
-279 -295 0
-280 -296 0
-273 -281 0
-274 -282 0
-275 -283 0
-276 -284 0
-277 -285 0
-278 -286 0
-279 -287 0
-280 -288 0
-273 -297 0
-274 -298 0
-275 -299 0
-276 -300 0
-277 -301 0
-278 -302 0
-279 -303 0
-280 -304 0
-281 -321 0
-282 -322 0
-283 -323 0
-284 -324 0
-285 -325 0
-286 -326 0
-287 -327 0
-288 -328 0
-281 -305 0
-282 -306 0
-283 -307 0
-284 -308 0
-285 -309 0
-286 -310 0
-287 -311 0
-288 -312 0
-281 -297 0
-282 -298 0
-283 -299 0
-284 -300 0
-285 -301 0
-286 -302 0
-287 -303 0
-288 -304 0
-281 -313 0
-282 -314 0
-283 -315 0
-284 -316 0
-285 -317 0
-286 -318 0
-287 -319 0
-288 -320 0
-297 -321 0
-298 -322 0
-299 -323 0
-300 -324 0
-301 -325 0
-302 -326 0
-303 -327 0
-304 -328 0
-297 -305 0
-298 -306 0
-299 -307 0
-300 -308 0
-301 -309 0
-302 -310 0
-303 -311 0
-304 -312 0
-297 -313 0
-298 -314 0
-299 -315 0
-300 -316 0
-301 -317 0
-302 -318 0
-303 -319 0
-304 -320 0
-305 -321 0
-306 -322 0
-307 -323 0
-308 -324 0
-309 -325 0
-310 -326 0
-311 -327 0
-312 -328 0
-305 -313 0
-306 -314 0
-307 -315 0
-308 -316 0
-309 -317 0
-310 -318 0
-311 -319 0
-312 -320 0
1 2 3 4 5 6 7 8 0
9 10 11 12 13 14 15 16 0
17 18 19 20 21 22 23 24 0
25 26 27 28 29 30 31 32 0
33 34 35 36 37 38 39 40 0
41 42 43 44 45 46 47 48 0
49 50 51 52 53 54 55 56 0
57 58 59 60 61 62 63 64 0
65 66 67 68 69 70 71 72 0
73 74 75 76 77 78 79 80 0
81 82 83 84 85 86 87 88 0
89 90 91 92 93 94 95 96 0
97 98 99 100 101 102 103 104 0
105 106 107 108 109 110 111 112 0
113 114 115 116 117 118 119 120 0
121 122 123 124 125 126 127 128 0
129 130 131 132 133 134 135 136 0
137 138 139 140 141 142 143 144 0
145 146 147 148 149 150 151 152 0
153 154 155 156 157 158 159 160 0
161 162 163 164 165 166 167 168 0
169 170 171 172 173 174 175 176 0
177 178 179 180 181 182 183 184 0
185 186 187 188 189 190 191 192 0
193 194 195 196 197 198 199 200 0
201 202 203 204 205 206 207 208 0
209 210 211 212 213 214 215 216 0
217 218 219 220 221 222 223 224 0
225 226 227 228 229 230 231 232 0
233 234 235 236 237 238 239 240 0
241 242 243 244 245 246 247 248 0
249 250 251 252 253 254 255 256 0
257 258 259 260 261 262 263 264 0
265 266 267 268 269 270 271 272 0
273 274 275 276 277 278 279 280 0
281 282 283 284 285 286 287 288 0
289 290 291 292 293 294 295 296 0
297 298 299 300 301 302 303 304 0
305 306 307 308 309 310 311 312 0
313 314 315 316 317 318 319 320 0
321 322 323 324 325 326 327 328 0
